% 
% Converted by convert_jobshop2.pl
% 
% original file (la03) from Google or-tools SVN repository
%   or-tools-read-only/data/jobshop/la03
%
%
% This data file is to be used with either of these two MiniZinc models:
%    http://www.hakank.org/minizinc/jobshop.mzn
%    http://www.hakank.org/minizinc/jobshop2.mzn
%


 
% +++++++++++++++++++++++++++++
% instance la03
% +++++++++++++++++++++++++++++
% Lawrence 10x5 instance (Table 3, instance 3); also called (setf3) or (F3)

num_machines = 10;
num_jobs = 5;
max_time = 99999; 

%
% The times for each job.
%
job_times = array2d(1..num_machines, 1..num_jobs,
[
23,45,82,84,38,
21,29,18,41,50,
38,54,16,52,52,
37,54,74,62,57,
57,81,61,68,30,
81,79,89,89,11,
33,20,91,20,66,
24,84,32,55,8,
56,7,54,64,39,
40,83,19,8,7,
]);


%
% The order each job must be done.
%
job_order = array2d(1..num_machines, 1..num_jobs,
[
1,2,0,4,3,
2,1,0,4,3,
2,3,4,0,1,
4,0,2,1,3,
4,0,1,3,2,
4,0,1,2,3,
3,2,0,4,1,
4,1,0,2,3,
4,0,3,2,1,
4,1,0,2,3,
]);
